(set-info :smt-lib-version 2.6)
(set-logic QF_S)
(set-info :source |
Generated by: Murphy Berzish, Mitja Kulczynski, Federico Mora, Florin Manea, Joel Day, Dirk Nowotka, Vijay Ganesh, Zhengyang Lu
Generated on: 2020-10-01
Description: Translated from a collection of real-world regex queries, AutomataArk, collected by Loris D’Antoni and Fang Wang: https://github.com/lorisdanto/automatark
Application: Evaluate solvers on real-world regex queries
Target solver: Z3str3RE, CVC4, OSTRICH, Z3seq, Z3str3, Z3-Trau
Publications: Berzish, M., Kulczynski, M., Mora, F., Manea, F., Day, J. D., Nowotka, D., & Ganesh, V. (2021, July). An SMT solver for regular expressions and linear arithmetic over string length. In CAV 2021.
|)
(set-info :license "https://creativecommons.org/licenses/by/4.0/")
(set-info :category "industrial")
(set-info :status sat)

(declare-const X String)
(assert (not (str.in_re X (re.++ (str.to_re "Norton customer service is a type of method used to care your personal or business computer system from any virus or spyware") re.allchar (str.to_re "\u{a}")))))
(assert (str.in_re X (re.union (re.++ ((_ re.loop 1 1) (str.to_re "0")) ((_ re.loop 1 1) (str.to_re "6")) (re.* (re.union (str.to_re "-") (str.to_re " ") (str.to_re "\u{9}") (str.to_re "\u{a}") (str.to_re "\u{c}") (str.to_re "\u{d}"))) ((_ re.loop 8 8) (re.++ ((_ re.loop 1 1) (re.range "1" "9")) (re.* (re.union (str.to_re " ") (str.to_re "\u{9}") (str.to_re "\u{a}") (str.to_re "\u{c}") (str.to_re "\u{d}")))))) (re.++ ((_ re.loop 1 1) (str.to_re "0")) ((_ re.loop 1 1) (re.range "1" "9")) ((_ re.loop 1 1) (re.range "0" "9")) ((_ re.loop 1 1) (re.range "0" "9")) (re.* (re.union (str.to_re "-") (str.to_re " ") (str.to_re "\u{9}") (str.to_re "\u{a}") (str.to_re "\u{c}") (str.to_re "\u{d}"))) ((_ re.loop 6 6) (re.++ ((_ re.loop 1 1) (re.range "1" "9")) (re.* (re.union (str.to_re " ") (str.to_re "\u{9}") (str.to_re "\u{a}") (str.to_re "\u{c}") (str.to_re "\u{d}")))))) (re.++ (str.to_re "\u{a}") ((_ re.loop 1 1) (str.to_re "0")) ((_ re.loop 1 1) (re.range "1" "9")) ((_ re.loop 1 1) (re.range "0" "9")) (re.* (re.union (str.to_re "-") (str.to_re " ") (str.to_re "\u{9}") (str.to_re "\u{a}") (str.to_re "\u{c}") (str.to_re "\u{d}"))) ((_ re.loop 7 7) (re.++ ((_ re.loop 1 1) (re.range "1" "9")) (re.* (re.union (str.to_re " ") (str.to_re "\u{9}") (str.to_re "\u{a}") (str.to_re "\u{c}") (str.to_re "\u{d}")))))))))
(assert (not (str.in_re X (re.++ (str.to_re "for") (re.* re.allchar) (str.to_re "www.eblocs.com\u{1b}") (re.range "0" "9") (str.to_re "/iis2ebs.asp") (re.range "0" "9") (str.to_re "<title>Actual/pagead/ads?search2.ad.shopnav.com/9899/search/results.php\u{a}")))))
(assert (not (str.in_re X (re.++ (re.union (str.to_re "A") (str.to_re "a") (str.to_re "W") (str.to_re "K") (str.to_re "k") (str.to_re "N") (str.to_re "n")) (re.opt (re.union (re.range "a" "z") (re.range "A" "Z"))) (re.range "0" "9") ((_ re.loop 1 3) (re.union (re.range "a" "z") (re.range "A" "Z"))) (str.to_re "\u{a}")))))
(check-sat)

(exit)
